
Gurobi 9.0.2 (win64) logging started Sun Dec 27 05:20:05 2020

Changed value of parameter logfile to result\SunCable-20201227T0415\scenario_2030_m10_cab3800.log
   Prev:   Default: 
Gurobi Optimizer version 9.0.2 build v9.0.2rc0 (win64)
Optimize a model with 1243974 rows, 762167 columns and 3491691 nonzeros
Model fingerprint: 0xced8203b
Coefficient statistics:
  Matrix range     [1e-07, 4e+05]
  Objective range  [1e+00, 1e+00]
  Bounds range     [0e+00, 0e+00]
  RHS range        [2e-05, 3e+08]
Warning: Model contains large matrix coefficient range
         Consider reformulating model or setting NumericFocus parameter
         to avoid numerical issues.

Concurrent LP optimizer: primal simplex, dual simplex, and barrier
Showing barrier log only...

Presolve removed 1068997 rows and 595935 columns
Presolve time: 2.80s
Presolved: 174977 rows, 280098 columns, 652320 nonzeros

Ordering time: 0.08s

Barrier statistics:
 Dense cols : 5
 AA' NZ     : 6.422e+05
 Factor NZ  : 3.150e+06 (roughly 200 MBytes of memory)
 Factor Ops : 7.040e+07 (less than 1 second per iteration)
 Threads    : 30

                  Objective                Residual
Iter       Primal          Dual         Primal    Dual     Compl     Time
   0  -2.51777028e+16 -1.07293690e+15  7.34e+06 2.55e+04  3.02e+12     3s
   1  -5.46478634e+15 -1.08609642e+15  1.59e+06 4.56e+06  8.52e+11     4s
   2  -1.75495721e+15 -1.02428288e+15  5.12e+05 8.63e+05  2.46e+11     4s
   3  -3.45284551e+14 -8.98962003e+14  1.02e+05 1.37e+05  4.94e+10     4s
   4  -7.78769849e+13 -5.52854347e+14  2.21e+04 3.75e+04  1.18e+10     5s
   5  -2.41992234e+13 -3.73563513e+14  7.03e+03 1.86e+04  4.53e+09     5s
   6  -7.27424372e+12 -2.62650874e+14  2.30e+03 9.23e+03  1.92e+09     5s
   7  -2.22640552e+12 -1.01256259e+14  8.24e+02 8.00e+02  4.34e+08     5s
   8   4.70291993e+11 -2.76416169e+13  2.00e+01 3.97e+01  5.50e+07     5s
   9   3.05867999e+11 -2.32956868e+12  1.41e+00 3.29e+00  4.88e+06     6s
  10   1.10906694e+11 -8.80430243e+11  2.93e-01 1.02e+00  1.79e+06     6s
  11   7.76967783e+10 -5.62138282e+11  1.88e-01 5.24e-01  1.15e+06     6s
  12   2.37711029e+10 -1.13042732e+11  3.96e-02 9.31e-09  2.43e+05     6s
  13   1.43089694e+10 -4.75069803e+10  1.73e-02 7.45e-09  1.09e+05     7s
  14   9.97645649e+09 -1.29517931e+10  5.87e-03 9.31e-09  4.05e+04     7s
  15   8.63319061e+09 -2.37181542e+09  2.39e-03 7.45e-09  1.94e+04     7s
  16   8.11698964e+09  1.99857161e+09  1.25e-03 5.59e-09  1.08e+04     7s
  17   7.79572397e+09  3.97404272e+09  5.81e-04 5.59e-09  6.73e+03     8s
  18   7.68727141e+09  4.89161605e+09  3.72e-04 3.73e-09  4.92e+03     8s
  19   7.63609458e+09  5.29144791e+09  2.77e-04 3.73e-09  4.13e+03     8s
  20   7.61123148e+09  5.53576047e+09  2.33e-04 3.73e-09  3.65e+03     8s
  21   7.54420300e+09  6.47568308e+09  1.19e-04 2.79e-09  1.88e+03     9s
  22   7.50035734e+09  6.91011809e+09  5.31e-05 1.86e-09  1.04e+03     9s
  23   7.49093346e+09  6.99432269e+09  4.09e-05 1.86e-09  8.74e+02     9s
  24   7.48392948e+09  7.04801716e+09  3.30e-05 1.86e-09  7.67e+02     9s
  25   7.48232984e+09  7.07101315e+09  3.11e-05 2.79e-09  7.24e+02    10s
  26   7.47218633e+09  7.13566742e+09  1.87e-05 1.86e-09  5.92e+02    10s
  27   7.46646953e+09  7.20485673e+09  1.25e-05 1.86e-09  4.60e+02    10s
  28   7.45849937e+09  7.27849123e+09  4.37e-06 1.86e-09  3.17e+02    10s
  29   7.45713256e+09  7.32734403e+09  3.43e-06 1.86e-09  2.28e+02    11s
  30   7.45621661e+09  7.35618728e+09  2.86e-06 1.86e-09  1.76e+02    11s
  31   7.45564368e+09  7.35961875e+09  2.55e-06 1.86e-09  1.69e+02    11s
  32   7.45472203e+09  7.37966497e+09  2.01e-06 1.86e-09  1.32e+02    12s
  33   7.45320932e+09  7.39225512e+09  1.15e-06 1.86e-09  1.07e+02    12s
  34   7.45184177e+09  7.42460398e+09  3.10e-07 1.86e-09  4.79e+01    12s
  35   7.45143858e+09  7.43801683e+09  1.73e-07 2.79e-09  2.36e+01    12s
  36   7.45127393e+09  7.43860409e+09  1.31e-07 1.86e-09  2.23e+01    13s
  37   7.45103480e+09  7.44247481e+09  8.20e-08 1.86e-09  1.51e+01    13s
  38   7.45092785e+09  7.44438155e+09  8.95e-08 1.86e-09  1.15e+01    13s
  39   7.45080057e+09  7.44922984e+09  1.49e-07 2.79e-09  2.76e+00    13s
  40   7.45075265e+09  7.45052921e+09  1.06e-07 2.79e-09  3.93e-01    14s
  41   7.45074909e+09  7.45072271e+09  1.30e-07 2.79e-09  4.64e-02    14s
  42   7.45074864e+09  7.45074743e+09  8.15e-09 2.79e-09  2.12e-03    14s
  43   7.45074864e+09  7.45074747e+09  2.06e-04 2.79e-09  2.06e-03    14s

Barrier solved model in 43 iterations and 14.47 seconds
Optimal objective 7.45074864e+09

Crossover log...

   12131 DPushes remaining with DInf 0.0000000e+00                15s
    4337 DPushes remaining with DInf 0.0000000e+00                15s
       0 DPushes remaining with DInf 0.0000000e+00                17s
Warning: Markowitz tolerance tightened to 0.25

  135003 PPushes remaining with PInf 5.9292611e+00                17s
   60112 PPushes remaining with PInf 2.8350879e+00                27s
    7582 PPushes remaining with PInf 9.7513357e-02                34s
       0 PPushes remaining with PInf 0.0000000e+00                35s

  Push phase complete: Pinf 0.0000000e+00, Dinf 5.1527143e+04     35s

Iteration    Objective       Primal Inf.    Dual Inf.      Time
  147135    7.4507632e+09   0.000000e+00   5.152714e+04     35s
  147178    7.4507485e+09   0.000000e+00   0.000000e+00     37s

Solved with barrier
Solved in 147178 iterations and 36.91 seconds
Optimal objective  7.450748474e+09
Warning: unscaled primal violation = 0.000884371 and residual = 0.000884371
